Mn As 
 1.0000000000000000
     3.6458040500000002    0.0000000000000000    0.0000000000000000
    -1.8229020249999992    3.1573589245201923    0.0000000000000000
     0.0000000000000000    0.0000000000000000    5.0450660000000003
 Mn  As 
   2   2
Cartesian
  0.0000000000000000  0.0000000000000000  0.0000000000000000
  0.0000000000000000  0.0000000000000000  2.5225329999999997
 -0.0000000182290197  2.1049059602046580  1.2612665000000001
  1.8229020432290206  1.0524529643155343  3.7837995000000002
